Features/ForMiniZinc/benchmark_puzzles/benchmarks7x7/80/puzzle10.dzn
S = 7;
start = [|0,0,0,0,0,0,10,0,28,0,0,0,0,0,11,0,32,4,0,0,0,0,19,0,8,0,0,0,0,0,0,0,0,0,0,0,0,0,37,0,23,0,0,0,0,0,0,0,0|
27,0,0,38,4,0,24,0,0,0,0,0,44,0,25,0,0,0,0,28,40,0,49,0,0,0,0,0,0,0,0,0,0,0,0,0,0,0,7,0,34,0,0,0,0,0,42,0,0|
0,0,0,0,0,0,46,0,0,0,0,0,0,0,0,0,12,0,24,0,0,0,0,0,0,0,0,0,9,31,0,0,0,0,0,4,0,8,0,14,0,39,0,0,0,0,36,13,15|
0,0,0,25,21,0,0,11,41,13,15,0,0,0,0,0,0,14,0,0,0,0,0,0,0,0,0,0,0,0,0,48,0,36,4,49,0,0,0,0,0,0,8,0,0,20,16,46,6|
0,0,0,0,0,0,0,0,0,0,0,32,0,0,9,0,0,3,35,0,0,0,0,0,0,0,4,0,13,46,0,0,34,0,0,0,0,0,0,0,0,19,0,23,48,0,0,0,0|
0,0,0,0,45,2,12,9,0,0,6,0,0,42,0,0,0,0,0,0,0,0,24,0,0,40,0,0,0,0,0,0,0,0,0,0,0,0,0,31,0,0,0,0,28,47,0,0,0|
19,0,0,0,0,0,0,0,0,0,0,25,0,0,0,0,0,0,0,0,0,0,48,0,0,0,0,0,0,0,0,0,0,0,0,0,0,0,0,0,0,0,0,0,0,0,29,0,0|
0,0,0,22,0,0,38,44,0,31,0,0,0,0,0,0,0,0,0,0,0,0,0,0,0,35,11,19,0,25,0,0,0,0,0,0,0,0,2,47,0,0,4,0,0,0,0,0,0|
0,0,47,0,0,0,0,0,0,0,20,34,0,0,0,0,0,0,0,0,0,43,0,0,0,0,0,36,0,27,0,0,0,0,8,0,23,0,0,24,0,0,0,0,40,0,0,0,0|
0,0,0,0,0,26,0,0,0,0,0,0,35,0,0,0,0,0,0,34,0,0,0,0,0,0,12,0,0,0,3,0,0,0,0,0,39,15,0,0,0,49,6,0,0,21,0,0,0|
0,0,0,0,0,0,0,18,0,0,0,0,0,0,0,0,3,22,0,0,0,25,27,0,21,0,38,0,44,0,0,0,0,0,0,0,0,30,0,17,0,0,0,0,41,16,48,0,19|
0,0,0,0,0,0,0,0,0,0,0,17,0,0,0,15,46,0,0,2,0,0,0,44,0,20,0,0,11,0,0,0,10,0,22,0,0,0,0,0,0,0,0,0,0,0,0,0,28|
0,0,0,0,0,45,0,0,0,36,0,0,0,0,7,0,0,0,0,0,0,0,33,47,0,0,0,15,46,21,39,0,0,20,0,0,35,32,0,0,12,0,0,0,0,0,0,0,0|
21,0,0,0,44,0,0,0,0,0,0,0,0,0,0,43,0,0,33,0,0,0,46,0,0,0,48,0,0,0,0,0,0,37,5,0,0,0,0,42,0,0,0,0,0,0,0,0,0|
0,0,0,3,0,0,45,39,5,0,0,0,41,0,0,0,0,0,6,18,15,0,0,0,0,23,0,9,0,0,27,0,0,0,0,33,0,0,32,0,0,0,0,34,0,0,0,0,0|
0,0,0,0,41,0,30,0,0,0,26,0,0,0,0,33,0,34,0,0,0,0,0,0,0,0,0,14,0,0,0,9,0,0,0,0,0,0,23,0,47,7,0,0,0,0,0,0,0|
0,0,26,0,0,27,0,0,0,0,0,0,0,0,0,7,20,0,0,0,0,0,0,16,0,0,0,0,0,22,0,0,0,0,0,0,0,0,34,0,0,0,0,14,6,0,0,4,0|
0,0,0,0,0,0,0,14,0,0,0,0,0,0,0,46,0,0,0,0,0,0,0,0,0,0,0,0,0,0,0,0,0,0,0,0,0,35,0,0,0,28,3,18,0,0,0,0,32|
6,0,0,0,22,0,40,0,0,0,0,0,0,0,0,0,0,0,0,0,0,17,0,18,0,0,0,0,0,0,0,0,0,0,0,0,0,0,0,0,0,0,0,0,0,30,0,0,0|
0,0,0,0,0,0,0,0,0,0,0,0,0,0,0,0,0,0,0,0,0,0,47,0,32,0,0,27,0,36,0,34,0,0,0,0,0,0,24,0,0,0,0,0,0,0,0,0,0|
0,0,0,15,0,0,7,0,0,4,0,0,0,29,0,32,0,0,0,0,0,0,0,0,0,0,8,0,0,0,46,0,0,21,0,0,0,0,0,0,0,0,0,0,0,0,0,0,0|
0,0,0,0,40,17,0,0,0,0,24,0,23,0,0,12,0,0,0,49,0,30,0,19,0,0,0,0,0,0,0,0,0,14,27,0,47,0,13,0,0,0,0,0,0,0,0,0,0|
28,0,24,0,0,30,0,7,0,48,0,0,0,0,3,0,0,0,0,0,0,44,38,20,0,0,16,0,0,0,40,0,0,8,0,0,0,0,0,0,0,0,0,0,0,0,0,0,0|
45,0,34,0,0,0,0,0,0,0,0,0,0,0,19,0,0,0,27,11,0,0,0,0,0,0,0,0,25,1,0,0,38,0,0,12,10,0,0,0,7,0,0,0,0,0,0,0,0|
0,0,0,0,0,0,0,47,18,0,0,0,0,0,0,0,2,0,0,0,45,0,0,0,0,0,0,0,20,34,42,0,0,0,0,0,6,0,0,0,0,0,0,0,0,25,0,0,0|
11,27,0,37,0,19,0,0,0,0,0,0,0,32,0,6,0,0,0,24,0,0,0,12,43,0,0,18,0,0,0,0,48,26,0,0,0,0,0,0,45,0,0,0,9,28,0,0,16|
0,0,0,0,0,0,0,0,20,0,0,11,12,0,17,35,0,21,0,14,0,0,15,0,24,0,0,0,29,0,0,0,22,0,19,0,0,0,0,0,0,0,0,0,0,3,5,0,45|
0,0,0,7,12,0,0,0,0,0,0,19,0,0,32,0,0,0,0,36,43,0,0,0,0,0,0,0,37,0,0,0,0,30,0,0,0,20,0,3,0,0,17,0,0,0,0,0,0|
23,6,0,0,0,0,0,0,31,0,0,9,0,0,0,0,0,0,0,0,0,0,14,0,0,0,24,0,0,48,0,0,0,0,0,43,0,0,5,0,1,0,40,0,0,0,0,0,0|
0,0,0,0,0,47,27,0,11,2,0,0,0,4,0,0,7,0,0,0,0,0,0,0,0,0,0,0,0,38,0,0,0,15,0,17,8,0,0,0,44,24,0,0,0,14,0,0,0|
33,13,0,0,49,0,22,0,0,0,0,0,0,0,0,0,0,0,0,0,20,0,0,0,15,0,0,0,26,0,21,0,0,0,0,30,0,7,0,0,0,6,18,0,0,0,1,0,0|
0,0,0,0,0,0,20,0,40,0,44,0,0,0,0,0,0,0,0,0,0,37,0,0,0,0,0,0,0,11,0,0,30,0,0,0,0,0,0,0,0,0,0,45,29,0,0,0,23|
0,0,0,0,0,0,0,0,0,0,0,0,14,0,0,0,35,26,8,0,0,0,0,0,0,7,0,16,0,0,0,0,0,31,0,0,0,0,0,29,0,0,0,0,0,11,0,0,3|
0,42,0,41,29,7,4,0,0,5,0,0,0,36,16,0,0,0,0,0,13,0,45,0,0,0,0,0,18,43,23,0,0,0,0,0,2,0,0,0,0,0,24,0,0,0,0,0,0|
0,0,0,0,0,0,0,0,0,34,0,0,0,0,0,0,0,0,0,5,0,0,0,0,0,0,0,30,0,0,28,0,0,29,0,0,0,42,0,41,0,0,0,0,0,31,0,43,26|
9,1,0,29,0,0,14,0,44,47,0,0,0,20,42,0,49,0,0,15,0,0,0,0,0,33,0,24,0,0,41,35,0,0,0,27,19,0,0,0,0,0,0,0,0,0,0,0,0|
0,0,0,24,0,0,0,0,30,1,0,0,11,0,0,0,0,0,0,43,0,0,0,17,20,0,0,22,0,0,0,0,15,0,0,0,0,0,0,0,0,23,36,0,0,0,0,0,0|
0,0,0,0,43,0,0,0,0,0,0,0,2,0,0,0,0,0,0,38,0,0,0,0,0,0,23,0,0,0,0,0,49,0,36,0,0,0,0,0,0,5,0,0,0,0,0,0,0|
0,0,0,0,0,4,0,0,0,23,0,0,0,0,0,0,0,30,0,0,0,0,28,36,0,0,0,0,8,19,0,0,0,0,0,44,0,0,0,11,41,0,0,0,45,0,0,0,29|
0,12,49,0,0,20,0,0,0,0,8,0,0,0,0,0,0,0,0,0,0,0,0,0,0,0,15,0,5,0,0,0,0,0,0,47,0,0,38,0,0,36,0,0,31,0,0,0,2|
0,36,0,17,0,0,0,0,0,0,0,0,34,0,12,0,0,0,0,0,0,0,0,0,0,0,0,0,0,0,29,0,0,0,0,7,0,0,0,2,9,0,0,0,0,0,39,8,0|
0,0,0,0,0,0,0,33,0,0,0,31,0,0,0,0,0,0,0,0,0,0,0,0,1,0,27,0,0,0,0,0,9,0,6,0,0,0,0,34,0,0,47,42,0,0,25,0,12|
0,0,0,0,0,0,0,0,0,0,0,0,0,33,0,0,1,0,0,0,0,0,0,0,0,0,0,0,0,0,0,0,0,0,0,0,28,0,0,0,0,0,0,0,0,19,0,15,0|
0,26,0,27,0,0,0,0,0,0,0,4,36,0,0,0,0,0,5,0,0,0,16,0,0,0,0,0,22,0,0,0,0,0,0,0,49,0,0,0,0,0,0,0,30,0,0,0,0|
0,0,0,0,0,32,1,0,0,0,0,0,0,0,0,0,0,0,0,37,0,0,0,0,0,0,0,0,0,0,0,0,31,0,42,0,0,19,0,0,0,0,0,0,0,4,46,0,0|
0,0,5,0,0,0,0,0,0,0,12,18,0,0,48,0,0,0,44,0,0,0,0,0,0,26,0,49,36,0,0,0,0,0,0,0,0,0,0,0,0,0,0,0,0,0,0,2,0|
0,0,0,0,0,0,0,0,0,0,0,0,0,0,0,0,0,27,0,0,0,0,0,0,0,0,0,0,0,0,0,0,0,0,0,0,0,0,0,0,0,33,0,3,0,0,0,0,0|
0,0,43,47,0,0,0,27,0,30,0,39,31,0,0,0,0,0,2,0,0,0,0,0,38,45,0,0,0,44,0,0,0,0,0,0,0,0,15,0,0,0,0,0,0,0,0,0,41|
0,0,0,0,0,0,0,0,0,0,0,0,0,0,46,0,0,7,0,0,0,0,13,0,0,0,0,0,0,0,0,0,6,0,0,0,31,0,1,27,0,0,48,28,0,44,0,0,0|];